
Gurobi 12.0.1 (win64, C++) logging started Thu Mar 20 16:59:32 2025

Set parameter Username
Set parameter LicenseID to value 2618661
Academic license - for non-commercial use only - expires 2026-02-05
Set parameter Threads to value 8
Set parameter LazyConstraints to value 1
Set parameter PreCrush to value 1
Set parameter Seed to value 0
Set parameter Cuts to value -1
Set parameter TimeLimit to value 28800
Set parameter NumericFocus to value 0
Set parameter SolutionLimit to value 10000
Gurobi Optimizer version 12.0.1 build v12.0.1rc0 (win64 - Windows Server 2022.0 (20348.2))

CPU model: AMD EPYC 7513 32-Core Processor, instruction set [SSE2|AVX|AVX2]
Thread count: 18 physical cores, 18 logical processors, using up to 8 threads

Non-default parameters:
SolutionLimit  10000
TimeLimit  28800
PreCrush  1
Threads  8
LazyConstraints  1

Optimize a model with 139 rows, 256 columns and 724 nonzeros
Model fingerprint: 0x5ef59db7
Variable types: 0 continuous, 256 integer (256 binary)
Coefficient statistics:
  Matrix range     [1e+00, 1e+00]
  Objective range  [8e+00, 6e+01]
  Bounds range     [1e+00, 1e+00]
  RHS range        [1e+00, 4e+00]
Presolve removed 7 rows and 26 columns
Presolve time: 0.00s
Presolved: 132 rows, 230 columns, 662 nonzeros
Variable types: 0 continuous, 230 integer (230 binary)

Root relaxation: objective 2.500413e+02, 80 iterations, 0.00 seconds (0.00 work units)

    Nodes    |    Current Node    |     Objective Bounds      |     Work
 Expl Unexpl |  Obj  Depth IntInf | Incumbent    BestBd   Gap | It/Node Time

     0     0  250.04127    0    -          -  250.04127      -     -    0s
     0     0  250.33574    0    -          -  250.33574      -     -    0s
     0     0  251.73966    0    -          -  251.73966      -     -    0s
     0     0  256.21439    0   23          -  256.21439      -     -    0s
     0     0  257.86003    0    -          -  257.86003      -     -    0s
     0     0  258.52106    0   35          -  258.52106      -     -    0s
     0     0  258.64794    0   36          -  258.64794      -     -    0s
     0     0  259.88990    0   33          -  259.88990      -     -    0s
     0     0  259.90137    0   32          -  259.90137      -     -    0s
     0     0  260.75719    0   34          -  260.75719      -     -    0s
     0     0  260.75719    0   26          -  260.75719      -     -    0s
     0     2  260.75719    0   26          -  260.75719      -     -    0s
   323   290  306.16660   29   18          -  268.07866      -   8.0    5s
   856   715  324.31863   32   14          -  270.29091      -   7.0   11s
  1455  1256  324.18239   25    7          -  271.27778      -   7.3   15s
  2012  1539  285.53440   13   28          -  273.37608      -   7.1   20s
  2489  1846  303.87390   44   26          -  273.37608      -   8.1   25s
  3459  2284  351.46639   56   15          -  273.37608      -   7.9   30s
* 3923  1956              41     307.7068746  276.64577  10.1%   7.8   32s
H 4097  1644                     302.0218782  276.64577  8.40%   7.8   33s
H 4112  1563                     301.7428984  276.64577  8.32%   7.8   33s
  5648  1892  300.10329   27   24  301.74290  280.10028  7.17%   7.8   35s
 11066  4293  297.57583   44   24  301.74290  284.04372  5.87%   7.9   40s
 17574  6335  299.28375   36   36  301.74290  286.68174  4.99%   8.1   45s
*17868  6324              38     301.6582384  286.68217  4.96%   8.1   45s
 26226  7487  295.72269   29   23  301.65824  289.23534  4.12%   8.2   50s
 43552  6538  297.65429   31   20  301.65824  293.65189  2.65%   8.3   55s

Cutting planes:
  Lazy constraints: 881

Explored 57739 nodes (498389 simplex iterations) in 58.35 seconds (14.89 work units)
Thread count was 8 (of 18 available processors)

Solution count 4: 301.658 301.743 302.022 307.707 

Optimal solution found (tolerance 1.00e-04)
Best objective 3.016582384371e+02, best bound 3.016582384371e+02, gap 0.0000%

User-callback calls 117339, time in user-callback 46.79 sec
### START EXACT APPROACH ###
ProblemVariant: 1
### START PREPROCESSING ###
## Start infeasible path procedure ## 
Deleted arcs: 10
Infeasible tail paths: 2
Infeasible 2-node combinations: 5
## Start extended infeasible path procedure ##
Deleted arcs: 10
Infeasible tail paths: 2
Infeasible 2-node combinations: 5
## Start start solution procedure ##
### END PREPROCESSING ###
Route 0 0-1-3-8-7-14-0 : weight util 0.955556 | volume util 0.654800 | infeasible with packing heuristic | feasible with CP model
Route 1 0-2-11-0 : weight util 0.544444 | volume util 0.355400 | infeasible with packing heuristic | feasible with CP model
Route 2 0-5-9-10-15-12-0 : weight util 0.844444 | volume util 0.568978 | infeasible with packing heuristic | feasible with CP model
Route 3 0-6-13-4-0 : weight util 0.522222 | volume util 0.562511 | infeasible with packing heuristic | feasible with CP model
